(set-option :produce-models true); benchmark generated from python API
(set-info :status unknown)
(declare-fun l_1_0_8 () Real)
(declare-fun l_1_0_7 () Real)
(declare-fun l_1_0_6 () Real)
(declare-fun l_1_0_5 () Real)
(declare-fun l_1_0_4 () Real)
(declare-fun l_1_0_3 () Real)
(declare-fun l_1_0_2 () Real)
(declare-fun l_1_0_11 () Real)
(declare-fun l_1_0_10 () Real)
(declare-fun l_1_0_1 () Real)
(declare-fun _a_0_ () Real)
(declare-fun l_1_0_9 () Real)
(declare-fun _a_1_ () Real)
(declare-fun l_1_0_14 () Real)
(declare-fun l_1_0_13 () Real)
(declare-fun l_1_0_12 () Real)
(declare-fun l_1_1_7 () Real)
(declare-fun l_1_1_6 () Real)
(declare-fun l_1_1_5 () Real)
(declare-fun l_1_1_17 () Real)
(declare-fun l_1_1_16 () Real)
(declare-fun l_1_1_14 () Real)
(declare-fun l_1_1_13 () Real)
(declare-fun l_1_1_12 () Real)
(declare-fun l_1_1_11 () Real)
(declare-fun l_1_1_10 () Real)
(declare-fun l_1_1_1 () Real)
(declare-fun l_1_1_9 () Real)
(declare-fun l_1_1_8 () Real)
(declare-fun l_1_1_4 () Real)
(declare-fun l_1_1_3 () Real)
(declare-fun l_1_1_2 () Real)
(declare-fun l_1_1_15 () Real)
(declare-fun l_1_1_20 () Real)
(declare-fun l_1_1_19 () Real)
(declare-fun l_1_1_18 () Real)
(declare-fun l_1_2_1 () Real)
(declare-fun l_1_2_2 () Real)
(declare-fun l_1_2_3 () Real)
(declare-fun l_1_2_4 () Real)
(declare-fun l_1_2_5 () Real)
(declare-fun l_1_2_6 () Real)
(declare-fun l_1_2_7 () Real)
(declare-fun l_1_2_8 () Real)
(declare-fun l_1_2_9 () Real)
(declare-fun l_1_2_10 () Real)
(declare-fun l_1_2_11 () Real)
(declare-fun l_1_2_12 () Real)
(declare-fun l_1_2_13 () Real)
(declare-fun l_1_2_14 () Real)
(declare-fun l_1_2_15 () Real)
(declare-fun l_1_2_17 () Real)
(declare-fun l_1_2_20 () Real)
(assert
 (let ((?x39 (* 3.0 l_1_0_7)))
 (let ((?x43 (* 9.0 l_1_0_4)))
 (let ((?x1184 (* 3.0 l_1_0_3)))
 (let ((?x1185 (* 3.0 l_1_0_2)))
 (let ((?x1186 (* l_1_0_11 l_1_0_11)))
 (let ((?x45 (+ (+ (- (- (- _a_0_ l_1_0_1) (* l_1_0_10 l_1_0_10)) ?x1186) ?x1185) ?x1184)))
 (= (- (+ (- (- (- ?x45 ?x43) l_1_0_5) l_1_0_6) ?x39) l_1_0_8) 0.0))))))))
(assert
 (let ((?x807 (* 4.0 l_1_0_7)))
 (let ((?x1124 (* 24.0 l_1_0_4)))
 (let ((?x1121 (* 4.0 l_1_0_3)))
 (let ((?x1119 (* 4.0 l_1_0_2)))
 (let ((?x1125 (+ (- (- (- _a_1_ (* (* 2.0 l_1_0_10) l_1_0_9)) ?x1119) ?x1121) ?x1124)))
 (= (- ?x1125 ?x807) 0.0)))))))
(assert
 (let ((?x1054 (* 6.0 l_1_0_4)))
 (let ((?x1050 (* l_1_0_14 l_1_0_14)))
 (let ((?x1052 (+ (- (- (* (- l_1_0_12) l_1_0_12) (* l_1_0_13 l_1_0_13)) ?x1050) l_1_0_2)))
 (= (- (+ (- (+ ?x1052 l_1_0_3) ?x1054) l_1_0_7) 1.0) 0.0)))))
(assert
 (let ((?x989 (* l_1_0_9 l_1_0_9)))
 (let ((?x990 (- (+ (- (+ l_1_0_2 l_1_0_3) (* 22.0 l_1_0_4)) l_1_0_7) ?x989)))
 (= (- ?x990 1.0) 0.0))))
(assert
 (= (- l_1_0_4) 0.0))
(assert
 (= (* (- 2.0) l_1_0_4) 0.0))
(assert
 (= (* 8.0 l_1_0_4) 0.0))
(assert
 (= (- l_1_0_4) 0.0))
(assert
 (= (* 8.0 l_1_0_4) 0.0))
(assert
 (= (* (* (- 2.0) l_1_0_12) l_1_0_9) 0.0))
(assert
 (let ((?x797 (- (* (* (- 2.0) l_1_0_10) l_1_0_12) (* (* 2.0 l_1_0_11) l_1_0_13))))
 (= ?x797 0.0)))
(assert
 (>= l_1_0_1 0.0))
(assert
 (>= l_1_0_2 0.0))
(assert
 (>= l_1_0_3 0.0))
(assert
 (>= l_1_0_4 0.0))
(assert
 (>= l_1_0_5 0.0))
(assert
 (>= l_1_0_6 0.0))
(assert
 (>= l_1_0_7 0.0))
(assert
 (>= l_1_0_8 0.0))
(assert
 (>= l_1_0_9 0.0))
(assert
 (>= l_1_0_11 0.0))
(assert
 (>= l_1_0_14 0.0))
(assert
 (let ((?x765 (* l_1_1_17 l_1_1_17)))
 (let ((?x766 (* l_1_1_16 l_1_1_16)))
 (let ((?x816 (* _a_0_ l_1_1_9)))
 (let ((?x813 (- (- (* (- _a_0_) l_1_1_2) (* _a_0_ l_1_1_3)) (* (* 1.0 _a_0_) l_1_1_4))))
 (let ((?x773 (- (- (- (- ?x813 (* (* 1.0 _a_0_) l_1_1_8)) ?x816) l_1_1_1) (* 1.0 l_1_1_10))))
 (let ((?x782 (- (- (- ?x773 (* 1.0 l_1_1_11)) (* 1.0 l_1_1_12)) (* (* l_1_1_13 _a_0_) _a_0_))))
 (let ((?x763 (- (- (- (- (- ?x782 l_1_1_14) ?x766) ?x765) (* 1.0 l_1_1_5)) l_1_1_6)))
 (= (+ (- ?x763 l_1_1_7) 2.0) 0.0)))))))))
(assert
 (let ((?x669 (* l_1_1_15 l_1_1_15)))
 (let ((?x630 (- (- (- (* (- 18.0) l_1_1_10) l_1_1_11) l_1_1_12) (* l_1_1_13 (+ (* (- 2.0) _a_0_) (* _a_1_ _a_1_))))))
 (let ((?x419 (- (+ (+ (- ?x630 ?x669) l_1_1_2) l_1_1_3) (* l_1_1_4 (- (- _a_0_ (* 4.0 _a_1_)) 1.0)))))
 (let ((?x649 (- (- ?x419 l_1_1_5) (* l_1_1_8 (- (- _a_0_ (* 4.0 _a_1_)) 1.0)))))
 (= (- (+ ?x649 l_1_1_9) (/ 1.0 5.0)) 0.0))))))
(assert
 (let ((?x329 (* 4.0 l_1_1_5)))
 (let ((?x375 (* 4.0 l_1_1_12)))
 (let ((?x373 (* 4.0 l_1_1_11)))
 (let ((?x371 (* 8.0 l_1_1_10)))
 (let ((?x369 (* _a_1_ l_1_1_9)))
 (let ((?x367 (* _a_1_ l_1_1_3)))
 (let ((?x365 (* _a_1_ l_1_1_2)))
 (let ((?x370 (- (- (- (* (* (* (- 2.0) _a_0_) _a_1_) l_1_1_13) ?x365) ?x367) ?x369)))
 (let ((?x379 (- (+ (+ (+ ?x370 ?x371) ?x373) ?x375) (* (* 2.0 l_1_1_15) l_1_1_16))))
 (let ((?x330 (+ (- ?x379 (* l_1_1_4 (+ (* (- 4.0) _a_0_) (* 1.0 _a_1_)))) ?x329)))
 (let ((?x333 (- (- ?x330 (* l_1_1_8 (+ (* (- 4.0) _a_0_) (* 1.0 _a_1_)))) 1.0)))
 (= ?x333 0.0)))))))))))))
(assert
 (let ((?x17 (* l_1_1_20 l_1_1_20)))
 (let ((?x220 (* l_1_1_19 l_1_1_19)))
 (let ((?x247 (* l_1_1_18 l_1_1_18)))
 (let ((?x245 (- (- (* (* 2.0 _a_0_) l_1_1_13) (* 2.0 l_1_1_10)) l_1_1_11)))
 (let ((?x223 (+ (- (+ (- (- (- ?x245 l_1_1_12) ?x247) ?x220) l_1_1_2) ?x17) l_1_1_3)))
 (let ((?x229 (- (- (- ?x223 (* l_1_1_4 (- _a_0_ 1.0))) l_1_1_5) (* l_1_1_8 (- _a_0_ 1.0)))))
 (= (+ ?x229 l_1_1_9) 0.0))))))))
(assert
 (let ((?x103 (- (+ (* (* 2.0 _a_1_) l_1_1_13) (* 8.0 l_1_1_10)) (* l_1_1_4 (+ _a_1_ 4.0)))))
 (= (- ?x103 (* l_1_1_8 (+ _a_1_ 4.0))) 0.0)))
(assert
 (let ((?x103 (- (+ (* (* 2.0 _a_1_) l_1_1_13) (* 8.0 l_1_1_10)) (* l_1_1_4 (+ _a_1_ 4.0)))))
 (= (- ?x103 (* l_1_1_8 (+ _a_1_ 4.0))) 0.0)))
(assert
 (= (+ (+ (- (- l_1_1_10) l_1_1_13) l_1_1_4) l_1_1_8) 0.0))
(assert
 (let ((?x277 (* 2.0 l_1_1_8)))
 (let ((?x271 (* 2.0 l_1_1_4)))
 (= (+ (+ (- (* (- 2.0) l_1_1_10) (* 2.0 l_1_1_13)) ?x271) ?x277) 0.0))))
(assert
 (= (+ (+ (- (- l_1_1_10) l_1_1_13) l_1_1_4) l_1_1_8) 0.0))
(assert
 (= (* (* (- 2.0) l_1_1_15) l_1_1_18) 0.0))
(assert
 (let ((?x435 (- (* (* (- 2.0) l_1_1_16) l_1_1_18) (* (* 2.0 l_1_1_17) l_1_1_19))))
 (= ?x435 0.0)))
(assert
 (>= l_1_1_1 0.0))
(assert
 (>= l_1_1_2 0.0))
(assert
 (>= l_1_1_3 0.0))
(assert
 (>= l_1_1_4 0.0))
(assert
 (>= l_1_1_5 0.0))
(assert
 (>= l_1_1_6 0.0))
(assert
 (>= l_1_1_7 0.0))
(assert
 (>= l_1_1_8 0.0))
(assert
 (>= l_1_1_9 0.0))
(assert
 (>= l_1_1_10 0.0))
(assert
 (>= l_1_1_11 0.0))
(assert
 (>= l_1_1_12 0.0))
(assert
 (>= l_1_1_13 0.0))
(assert
 (>= l_1_1_14 0.0))
(assert
 (>= l_1_1_15 0.0))
(assert
 (>= l_1_1_17 0.0))
(assert
 (>= l_1_1_20 0.0))
(assert
 false)
(assert
 (>= l_1_2_1 0.0))
(assert
 (>= l_1_2_2 0.0))
(assert
 (>= l_1_2_3 0.0))
(assert
 (>= l_1_2_4 0.0))
(assert
 (>= l_1_2_5 0.0))
(assert
 (>= l_1_2_6 0.0))
(assert
 (>= l_1_2_7 0.0))
(assert
 (>= l_1_2_8 0.0))
(assert
 (>= l_1_2_9 0.0))
(assert
 (>= l_1_2_10 0.0))
(assert
 (>= l_1_2_11 0.0))
(assert
 (>= l_1_2_12 0.0))
(assert
 (>= l_1_2_13 0.0))
(assert
 (>= l_1_2_14 0.0))
(assert
 (>= l_1_2_15 0.0))
(assert
 (>= l_1_2_17 0.0))
(assert
 (>= l_1_2_20 0.0))
(check-sat)
(get-model)